
  22    4
  10   10   10   10

   0   0   0   0   0   5 2 3 4 7 10 
   1  10  10  10  10   3 12 8 6 
  10  10  10  10  10   4 17 12 11 8 
   7  10  10  10  10   3 14 12 5 
  10  10  10  10  10   3 17 13 11 
   3  10  10  10  10   4 17 16 14 13 
   7  10  10  10  10   2 15 12 
   2  10  10  10  10   1 9 
   5  10  10  10  10   3 16 15 13 
   2  10  10  10  10   3 21 14 13 
   5  10  10  10  10   4 21 19 18 15 
   2  10  10  10  10   3 21 19 16 
   2  10  10  10  10   3 20 19 18 
   7  10  10  10  10   2 19 18 
   7  10  10  10  10   1 20 
   8  10  10  10  10   1 18 
   2  10  10  10  10   1 18 
   1  10  10  10  10   1 22
  10  10  10  10  10   1 22
   6  10  10  10  10   1 22
   3  10  10  10  10   1 22
   0   0   0   0   0   0 
